22      4       
13      15      14      14      
0       0       0       0       0       4       2       3       4       5       
1       3       6       10      7       1       9       
6       5       4       10      2       1       6       
5       4       8       4       8       1       10      
3       10      10      1       10      2       15      17      
6       2       3       4       10      1       7       
9       2       9       10      3       1       8       
4       6       7       2       7       1       9       
2       10      2       6       3       2       10      11      
10      3       1       6       10      2       12      14      
4       5       5       1       2       2       14      17      
6       7       5       9       5       1       13      
4       6       3       3       7       2       17      21      
1       5       4       7       10      2       15      21      
10      3       8       9       1       1       16      
8       5       8       7       6       1       18      
7       2       1       2       2       1       19      
3       7       10      7       6       1       19      
7       4       10      1       3       1       20      
9       2       4       3       6       1       22      
7       6       10      2       5       1       22      
0       0       0       0       0       0       
